qbf_easy_train/easy_326_SAT.qdimacs
p cnf 19 37
a 3 11 6 0
e 1 2 4 5 7 8 9 10 12 13 14 15 16 17 18 19 0
3 -1 0
3 2 0
1 -2 -3 0
-5 -2 0
-5 4 0
2 -4 5 0
-8 -6 0
-8 7 0
6 -7 8 0
-9 -5 0
-9 8 0
5 -8 9 0
-12 10 0
-12 -11 0
-10 11 12 0
13 -9 0
13 -12 0
9 12 -13 0
14 -3 0
14 13 0
3 -13 -14 0
15 4 0
15 7 0
-4 -7 -15 0
16 14 0
16 15 0
-14 -15 -16 0
18 1 0
18 -17 0
-1 17 -18 0
-19 16 0
-19 18 0
-16 -18 19 0
-8 17 -3 7 5 18 -1 15 0
-8 -2 17 19 -15 0
10 -5 15 -1 0
19 0
