sat_easy_train/easy_326_SAT.dimacs
p cnf 89 285
3 1 0
3 2 0
-1 -2 -3 0
-4 5 0
4 5 0
8 6 0
8 -7 0
-6 7 -8 0
10 6 0
10 9 0
-6 -9 -10 0
11 2 0
11 10 0
-2 -10 -11 0
13 11 0
13 -12 0
-11 12 -13 0
14 -2 0
14 13 0
2 -13 -14 0
15 -8 0
15 14 0
8 -14 -15 0
-17 -7 0
-17 -16 0
7 16 17 0
-15 17 -18 0
15 -17 -18 0
-15 -17 18 0
15 17 18 0
-19 5 0
-19 -18 0
-5 18 19 0
-21 -11 0
-21 -15 0
11 15 21 0
-20 21 -22 0
20 -21 -22 0
-20 -21 22 0
20 21 22 0
-16 -22 -23 0
16 22 -23 0
-16 22 23 0
16 -22 23 0
24 19 0
24 -23 0
-19 23 -24 0
25 -3 0
25 -24 0
3 24 -25 0
-14 -2 -26 0
14 2 -26 0
-14 2 26 0
14 -2 26 0
-27 26 0
-27 -4 0
-26 4 27 0
-28 -7 -29 0
28 7 -29 0
-28 7 29 0
28 -7 29 0
30 27 0
30 -29 0
-27 29 -30 0
31 -20 -32 0
-31 20 -32 0
31 20 32 0
-31 -20 32 0
-33 32 0
-33 9 0
-32 -9 33 0
33 34 0
-33 34 0
-35 -30 0
-35 -34 0
30 34 35 0
-36 1 0
-36 9 0
-1 -9 36 0
-37 12 0
-37 -1 0
-12 1 37 0
-36 -37 -38 0
36 37 -38 0
-36 37 38 0
36 -37 38 0
40 -20 0
40 39 0
20 -39 -40 0
-38 40 -41 0
38 -40 -41 0
-38 -40 41 0
38 40 41 0
42 35 0
42 41 0
-35 -41 -42 0
43 -25 0
43 -42 0
25 42 -43 0
-44 20 0
-44 -28 0
-20 28 44 0
-12 8 -45 0
12 -8 -45 0
-12 -8 45 0
12 8 45 0
-47 -16 0
-47 12 0
16 -12 47 0
-48 -47 0
-48 1 0
47 -1 48 0
-49 46 0
-49 -48 0
-46 48 49 0
-4 11 -50 0
4 -11 -50 0
-4 -11 50 0
4 11 50 0
48 1 -51 0
-48 -1 -51 0
48 -1 51 0
-48 1 51 0
31 51 -52 0
-31 -51 -52 0
31 -51 52 0
-31 51 52 0
50 -52 -53 0
-50 52 -53 0
50 52 53 0
-50 -52 53 0
-55 4 0
-55 -11 0
-4 11 55 0
56 -54 0
56 55 0
54 -55 -56 0
53 -56 -57 0
-53 56 -57 0
53 56 57 0
-53 -56 57 0
49 57 -58 0
-49 -57 -58 0
49 -57 58 0
-49 57 58 0
-45 -58 -59 0
45 58 -59 0
-45 58 59 0
45 -58 59 0
44 -59 -60 0
-44 59 -60 0
44 59 60 0
-44 -59 60 0
61 -2 0
61 -13 0
2 13 -61 0
61 -26 -62 0
-61 26 -62 0
61 26 62 0
-61 -26 62 0
21 -62 -63 0
-21 62 -63 0
21 62 63 0
-21 -62 63 0
-60 -63 -64 0
60 63 -64 0
-60 63 64 0
60 -63 64 0
65 43 0
65 64 0
-43 -64 -65 0
-66 11 0
-66 15 0
-11 -15 66 0
4 12 -67 0
-4 -12 -67 0
4 -12 67 0
-4 12 67 0
-66 -67 -68 0
66 67 -68 0
-66 67 68 0
66 -67 68 0
-69 65 0
-69 -68 0
-65 68 69 0
-71 -36 0
-71 70 0
36 -70 71 0
-22 -72 -73 0
22 72 -73 0
-22 72 73 0
22 -72 73 0
-74 32 0
-74 -70 0
-32 70 74 0
75 74 0
75 7 0
-74 -7 -75 0
-76 -73 0
-76 -75 0
73 75 76 0
-71 -76 -77 0
71 76 -77 0
-71 76 77 0
71 -76 77 0
-69 77 -78 0
69 -77 -78 0
-69 -77 78 0
69 77 78 0
79 -46 0
79 -33 0
46 33 -79 0
79 72 -80 0
-79 -72 -80 0
79 -72 80 0
-79 72 80 0
12 70 -81 0
-12 -70 -81 0
12 -70 81 0
-12 70 81 0
82 15 0
82 -81 0
-15 81 -82 0
-83 80 0
-83 -82 0
-80 82 83 0
-31 -8 -84 0
31 8 -84 0
-31 8 84 0
31 -8 84 0
47 -84 -85 0
-47 84 -85 0
47 84 85 0
-47 -84 85 0
83 85 -86 0
-83 -85 -86 0
83 -85 86 0
-83 85 86 0
-87 -50 0
-87 -17 0
50 17 87 0
-88 -86 0
-88 87 0
86 -87 88 0
-89 78 0
-89 -88 0
-78 88 89 0
-68 -69 57 -87 0
28 3 -82 0
67 41 -59 2 -25 0
80 -17 -46 -21 -56 0
-81 61 -1 0
-75 17 38 -31 0
20 -72 89 23 0
-89 81 -4 22 84 0
51 -86 -43 -21 0
-88 42 16 -21 0
-60 -17 45 51 -40 0
2 15 -70 43 0
-2 22 64 85 0
20 41 -84 -33 -89 0
-34 23 31 -36 58 0
52 85 -69 -48 -4 -1 0
81 -56 51 -47 74 75 0
7 -84 0
41 26 -46 0
-13 -55 -41 -34 -20 0
87 12 65 0
14 -35 -75 27 0
-70 -29 -85 53 -39 0
8 32 -83 0
60 73 46 59 78 0
-36 -23 0
88 -81 -29 -20 0
-11 43 -22 73 0
-64 -83 -59 -78 -77 0
-6 84 86 73 -68 13 0
87 -3 -61 -34 30 27 0
-44 64 0
-89 -50 -24 -46 0
88 -39 -16 -68 -55 0
-85 24 -16 0
80 19 -5 8 0
-37 12 0
89 0
